854907
87,82,14,60,15,57,81,66,26,1,63,4,2,34,41,96,7,88,84,52,90,43,54,71,67,98,79,47,0,36,73,69,31,62,12,59,30,61,92,48,9,55,74,5,68,40,17,95,29,76,20,19,8,32,56,46,94,72,24,50,77,78,28,93,39,25,16,11,18,42,23,58,89,70,33,45,27,10,22,97,53,64,51,21,83,91,38,13,85,80,6,65,3,44,86,75,37,35,49
